-442.0 6.0 7.0 1.0 2.0 0.0 7.0 10.0 3.0 3.0 3.0 8.0 10.0 8.0 1.0 7.0 9.0 1.0 0.0 3.0 10.0 3.0 9.0 7.0 7.0 2.0 1.0 8.0 7.0 7.0 8.0 9.0 8.0 9.0 3.0 6.0 1.0 0.0 6.0 0.0 0.0 4.0 1.0 9.0 8.0 8.0 8.0 10.0 8.0 6.0 10.0 6.0 2.0 3.0 6.0 6.0 7.0 0.0 2.0 3.0 0.0 7.0 1.0 9.0 7.0 5.0 7.0 1.0 7.0 0.0 5.0 3.0 5.0 2.0 8.0 2.0 8.0 3.0 5.0 8.0 5.0 0.0 3.0 4.0 10.0 5.0 6.0 9.0 0.0 0.0 0.0 
6.0 -483.0 10.0 6.0 10.0 9.0 7.0 10.0 10.0 7.0 3.0 9.0 6.0 8.0 9.0 3.0 5.0 6.0 10.0 4.0 8.0 6.0 2.0 2.0 6.0 10.0 2.0 7.0 2.0 4.0 6.0 1.0 1.0 10.0 7.0 4.0 3.0 4.0 5.0 7.0 1.0 4.0 3.0 9.0 7.0 9.0 6.0 5.0 9.0 7.0 4.0 5.0 3.0 4.0 10.0 2.0 7.0 2.0 7.0 7.0 8.0 8.0 10.0 1.0 3.0 2.0 4.0 10.0 7.0 2.0 7.0 8.0 7.0 9.0 2.0 8.0 10.0 2.0 9.0 1.0 9.0 10.0 0.0 0.0 0.0 0.0 0.0 0.0 0.0 0.0 0.0 
7.0 10.0 -440.0 0.0 9.0 4.0 3.0 1.0 8.0 0.0 4.0 4.0 6.0 1.0 8.0 0.0 0.0 8.0 6.0 2.0 4.0 5.0 9.0 10.0 3.0 9.0 9.0 10.0 5.0 10.0 7.0 0.0 3.0 0.0 5.0 9.0 9.0 6.0 8.0 6.0 7.0 7.0 5.0 7.0 0.0 6.0 3.0 8.0 5.0 8.0 0.0 8.0 1.0 0.0 3.0 9.0 10.0 0.0 9.0 3.0 9.0 2.0 2.0 1.0 0.0 7.0 3.0 5.0 10.0 10.0 1.0 2.0 6.0 2.0 7.0 1.0 3.0 3.0 5.0 2.0 0.0 9.0 2.0 4.0 2.0 4.0 9.0 0.0 3.0 10.0 9.0 
1.0 6.0 0.0 -379.0 6.0 1.0 6.0 1.0 8.0 5.0 4.0 1.0 0.0 0.0 7.0 8.0 5.0 0.0 2.0 0.0 2.0 9.0 3.0 10.0 1.0 3.0 3.0 9.0 3.0 7.0 6.0 5.0 10.0 8.0 10.0 0.0 0.0 2.0 3.0 6.0 4.0 0.0 2.0 4.0 0.0 5.0 5.0 0.0 4.0 2.0 5.0 8.0 2.0 8.0 7.0 6.0 2.0 5.0 0.0 0.0 10.0 6.0 5.0 7.0 5.0 4.0 2.0 6.0 9.0 8.0 7.0 1.0 2.0 8.0 5.0 7.0 0.0 0.0 1.0 1.0 3.0 9.0 2.0 8.0 9.0 2.0 10.0 8.0 1.0 1.0 2.0 
2.0 10.0 9.0 6.0 -417.0 10.0 6.0 10.0 2.0 4.0 6.0 6.0 10.0 0.0 6.0 6.0 1.0 9.0 5.0 5.0 1.0 5.0 5.0 6.0 0.0 4.0 1.0 4.0 6.0 3.0 3.0 7.0 2.0 4.0 3.0 8.0 1.0 3.0 0.0 0.0 0.0 1.0 1.0 8.0 10.0 3.0 3.0 10.0 10.0 0.0 1.0 7.0 5.0 6.0 2.0 4.0 2.0 4.0 2.0 2.0 2.0 6.0 7.0 4.0 3.0 1.0 4.0 10.0 5.0 5.0 9.0 6.0 3.0 1.0 6.0 0.0 8.0 2.0 1.0 4.0 8.0 9.0 8.0 7.0 6.0 5.0 6.0 8.0 1.0 8.0 4.0 
0.0 9.0 4.0 1.0 10.0 -408.0 8.0 2.0 10.0 0.0 4.0 8.0 3.0 7.0 10.0 3.0 4.0 0.0 2.0 10.0 8.0 8.0 8.0 0.0 0.0 5.0 0.0 2.0 1.0 9.0 4.0 6.0 1.0 0.0 4.0 10.0 1.0 6.0 5.0 8.0 1.0 8.0 1.0 10.0 2.0 2.0 7.0 10.0 4.0 4.0 4.0 5.0 3.0 1.0 5.0 7.0 6.0 1.0 8.0 1.0 9.0 10.0 0.0 2.0 8.0 1.0 2.0 2.0 6.0 8.0 9.0 8.0 6.0 3.0 10.0 2.0 0.0 1.0 1.0 1.0 6.0 7.0 9.0 7.0 5.0 2.0 4.0 3.0 2.0 0.0 3.0 
7.0 7.0 3.0 6.0 6.0 8.0 -484.0 7.0 8.0 10.0 4.0 7.0 6.0 8.0 8.0 5.0 8.0 8.0 10.0 6.0 0.0 3.0 10.0 10.0 5.0 1.0 8.0 7.0 9.0 5.0 0.0 9.0 2.0 6.0 6.0 9.0 4.0 2.0 1.0 4.0 6.0 3.0 6.0 10.0 2.0 9.0 2.0 6.0 3.0 6.0 0.0 9.0 6.0 5.0 3.0 5.0 5.0 0.0 3.0 0.0 2.0 5.0 4.0 7.0 8.0 9.0 3.0 7.0 7.0 9.0 9.0 9.0 5.0 4.0 5.0 3.0 2.0 5.0 6.0 7.0 0.0 8.0 1.0 5.0 4.0 0.0 3.0 5.0 10.0 3.0 7.0 
10.0 10.0 1.0 1.0 10.0 2.0 7.0 -457.0 3.0 9.0 6.0 3.0 3.0 8.0 0.0 4.0 8.0 7.0 3.0 9.0 0.0 3.0 7.0 3.0 7.0 8.0 5.0 0.0 8.0 7.0 10.0 1.0 0.0 2.0 6.0 1.0 4.0 4.0 9.0 9.0 5.0 9.0 0.0 1.0 7.0 7.0 9.0 0.0 6.0 10.0 0.0 0.0 2.0 6.0 7.0 7.0 0.0 2.0 4.0 10.0 7.0 4.0 8.0 8.0 10.0 6.0 2.0 2.0 6.0 3.0 2.0 3.0 8.0 6.0 7.0 5.0 6.0 10.0 3.0 5.0 0.0 3.0 10.0 0.0 7.0 8.0 8.0 6.0 6.0 1.0 7.0 
3.0 10.0 8.0 8.0 2.0 10.0 8.0 3.0 -497.0 10.0 4.0 3.0 1.0 10.0 7.0 5.0 3.0 3.0 6.0 10.0 3.0 3.0 5.0 0.0 1.0 7.0 8.0 4.0 2.0 0.0 9.0 3.0 9.0 4.0 9.0 6.0 8.0 5.0 7.0 6.0 9.0 3.0 9.0 9.0 3.0 0.0 6.0 10.0 2.0 0.0 5.0 8.0 6.0 5.0 7.0 2.0 0.0 1.0 6.0 7.0 10.0 2.0 8.0 2.0 8.0 10.0 4.0 0.0 1.0 9.0 8.0 5.0 6.0 5.0 8.0 8.0 1.0 6.0 4.0 6.0 9.0 9.0 5.0 10.0 9.0 5.0 2.0 9.0 7.0 9.0 1.0 
3.0 7.0 0.0 5.0 4.0 0.0 10.0 9.0 10.0 -467.0 9.0 10.0 8.0 7.0 1.0 1.0 0.0 7.0 5.0 5.0 2.0 0.0 0.0 9.0 7.0 9.0 5.0 2.0 10.0 6.0 4.0 7.0 3.0 3.0 7.0 9.0 5.0 4.0 2.0 9.0 8.0 1.0 0.0 2.0 4.0 10.0 1.0 10.0 6.0 9.0 6.0 3.0 7.0 7.0 8.0 1.0 5.0 8.0 5.0 9.0 6.0 9.0 2.0 10.0 7.0 2.0 1.0 2.0 3.0 6.0 9.0 3.0 9.0 5.0 6.0 10.0 1.0 9.0 1.0 5.0 1.0 4.0 9.0 7.0 0.0 5.0 0.0 8.0 3.0 0.0 10.0 
3.0 3.0 4.0 4.0 6.0 4.0 4.0 6.0 4.0 9.0 -453.0 8.0 3.0 10.0 9.0 10.0 10.0 8.0 9.0 0.0 8.0 2.0 6.0 6.0 3.0 8.0 8.0 0.0 10.0 1.0 0.0 1.0 8.0 3.0 1.0 2.0 2.0 8.0 7.0 0.0 8.0 5.0 7.0 4.0 5.0 9.0 3.0 3.0 1.0 5.0 7.0 10.0 6.0 2.0 3.0 3.0 7.0 1.0 10.0 8.0 1.0 9.0 7.0 10.0 5.0 2.0 1.0 1.0 8.0 2.0 5.0 7.0 4.0 6.0 4.0 5.0 1.0 6.0 4.0 2.0 0.0 6.0 7.0 7.0 5.0 6.0 1.0 6.0 5.0 8.0 7.0 
8.0 9.0 4.0 1.0 6.0 8.0 7.0 3.0 3.0 10.0 8.0 -456.0 7.0 10.0 2.0 9.0 1.0 3.0 8.0 6.0 4.0 4.0 9.0 9.0 8.0 5.0 5.0 1.0 10.0 8.0 9.0 8.0 2.0 1.0 6.0 5.0 7.0 0.0 10.0 5.0 3.0 3.0 5.0 7.0 9.0 8.0 0.0 2.0 0.0 2.0 4.0 10.0 3.0 9.0 4.0 8.0 1.0 4.0 5.0 4.0 1.0 7.0 2.0 4.0 6.0 9.0 5.0 3.0 6.0 0.0 1.0 1.0 10.0 7.0 0.0 6.0 5.0 9.0 3.0 1.0 4.0 6.0 3.0 2.0 9.0 6.0 8.0 0.0 2.0 2.0 8.0 
10.0 6.0 6.0 0.0 10.0 3.0 6.0 3.0 1.0 8.0 3.0 7.0 -484.0 4.0 4.0 2.0 10.0 8.0 8.0 4.0 5.0 0.0 10.0 5.0 4.0 5.0 10.0 2.0 6.0 4.0 4.0 6.0 2.0 9.0 2.0 5.0 5.0 9.0 10.0 5.0 8.0 3.0 8.0 9.0 5.0 4.0 8.0 8.0 9.0 3.0 6.0 9.0 8.0 4.0 8.0 1.0 0.0 0.0 4.0 9.0 9.0 10.0 10.0 0.0 5.0 3.0 0.0 0.0 3.0 2.0 6.0 9.0 2.0 2.0 5.0 7.0 4.0 3.0 9.0 4.0 6.0 4.0 8.0 9.0 2.0 8.0 9.0 0.0 7.0 4.0 9.0 
8.0 8.0 1.0 0.0 0.0 7.0 8.0 8.0 10.0 7.0 10.0 10.0 4.0 -444.0 5.0 0.0 6.0 3.0 6.0 1.0 4.0 7.0 2.0 4.0 10.0 4.0 3.0 10.0 0.0 9.0 1.0 3.0 1.0 9.0 5.0 3.0 9.0 2.0 4.0 6.0 7.0 7.0 1.0 9.0 3.0 7.0 3.0 8.0 4.0 6.0 5.0 5.0 4.0 0.0 8.0 0.0 4.0 5.0 7.0 9.0 0.0 10.0 6.0 5.0 7.0 4.0 6.0 0.0 2.0 4.0 5.0 7.0 4.0 1.0 10.0 9.0 1.0 2.0 0.0 8.0 6.0 0.0 8.0 9.0 8.0 0.0 3.0 7.0 10.0 1.0 1.0 
1.0 9.0 8.0 7.0 6.0 10.0 8.0 0.0 7.0 1.0 9.0 2.0 4.0 5.0 -468.0 5.0 4.0 0.0 2.0 8.0 5.0 1.0 4.0 7.0 5.0 1.0 0.0 8.0 10.0 10.0 5.0 7.0 7.0 7.0 9.0 8.0 10.0 1.0 3.0 6.0 3.0 7.0 2.0 4.0 7.0 9.0 7.0 5.0 10.0 9.0 3.0 10.0 8.0 0.0 1.0 7.0 5.0 6.0 9.0 1.0 2.0 9.0 9.0 4.0 1.0 0.0 3.0 0.0 9.0 9.0 8.0 6.0 6.0 7.0 1.0 0.0 3.0 5.0 8.0 3.0 6.0 9.0 7.0 3.0 6.0 2.0 3.0 0.0 10.0 1.0 5.0 
7.0 3.0 0.0 8.0 6.0 3.0 5.0 4.0 5.0 1.0 10.0 9.0 2.0 0.0 5.0 -432.0 8.0 10.0 2.0 8.0 4.0 6.0 2.0 5.0 5.0 7.0 4.0 4.0 8.0 3.0 0.0 5.0 7.0 1.0 2.0 0.0 0.0 8.0 2.0 10.0 6.0 8.0 8.0 8.0 4.0 5.0 6.0 5.0 4.0 3.0 6.0 0.0 9.0 3.0 0.0 2.0 7.0 2.0 4.0 4.0 10.0 0.0 3.0 10.0 9.0 0.0 5.0 8.0 0.0 3.0 7.0 2.0 3.0 0.0 6.0 7.0 10.0 8.0 4.0 7.0 9.0 3.0 2.0 2.0 10.0 2.0 2.0 9.0 4.0 7.0 7.0 
9.0 5.0 0.0 5.0 1.0 4.0 8.0 8.0 3.0 0.0 10.0 1.0 10.0 6.0 4.0 8.0 -464.0 5.0 2.0 5.0 7.0 0.0 2.0 0.0 6.0 2.0 8.0 3.0 4.0 9.0 4.0 8.0 1.0 4.0 0.0 4.0 0.0 4.0 4.0 7.0 6.0 2.0 1.0 6.0 8.0 6.0 8.0 8.0 10.0 0.0 8.0 10.0 9.0 6.0 6.0 9.0 3.0 2.0 3.0 3.0 0.0 7.0 8.0 1.0 10.0 4.0 10.0 2.0 1.0 1.0 1.0 9.0 8.0 10.0 6.0 7.0 3.0 9.0 1.0 6.0 10.0 10.0 9.0 7.0 9.0 0.0 6.0 2.0 8.0 4.0 10.0 
1.0 6.0 8.0 0.0 9.0 0.0 8.0 7.0 3.0 7.0 8.0 3.0 8.0 3.0 0.0 10.0 5.0 -452.0 9.0 7.0 1.0 1.0 8.0 1.0 10.0 7.0 6.0 3.0 5.0 7.0 3.0 10.0 2.0 9.0 10.0 9.0 5.0 9.0 4.0 3.0 9.0 8.0 0.0 9.0 6.0 6.0 2.0 9.0 8.0 8.0 3.0 0.0 6.0 3.0 0.0 5.0 2.0 7.0 3.0 0.0 0.0 9.0 7.0 8.0 10.0 5.0 9.0 7.0 1.0 3.0 0.0 0.0 0.0 10.0 3.0 2.0 9.0 4.0 5.0 8.0 1.0 10.0 7.0 1.0 6.0 2.0 0.0 8.0 1.0 1.0 6.0 
0.0 10.0 6.0 2.0 5.0 2.0 10.0 3.0 6.0 5.0 9.0 8.0 8.0 6.0 2.0 2.0 2.0 9.0 -422.0 7.0 10.0 4.0 0.0 9.0 7.0 5.0 0.0 1.0 7.0 5.0 1.0 3.0 7.0 8.0 2.0 6.0 5.0 2.0 4.0 9.0 1.0 2.0 8.0 3.0 3.0 10.0 5.0 6.0 3.0 2.0 0.0 4.0 0.0 6.0 7.0 5.0 5.0 5.0 3.0 2.0 6.0 10.0 9.0 4.0 8.0 4.0 4.0 2.0 0.0 7.0 6.0 8.0 9.0 6.0 7.0 7.0 5.0 2.0 10.0 3.0 0.0 3.0 10.0 1.0 4.0 2.0 2.0 1.0 3.0 0.0 2.0 
3.0 4.0 2.0 0.0 5.0 10.0 6.0 9.0 10.0 5.0 0.0 6.0 4.0 1.0 8.0 8.0 5.0 7.0 7.0 -434.0 5.0 7.0 6.0 1.0 10.0 0.0 2.0 8.0 5.0 1.0 3.0 4.0 2.0 7.0 7.0 0.0 9.0 3.0 8.0 0.0 7.0 5.0 5.0 4.0 1.0 5.0 5.0 5.0 1.0 1.0 9.0 2.0 1.0 7.0 0.0 2.0 1.0 10.0 10.0 3.0 7.0 1.0 2.0 1.0 2.0 0.0 9.0 8.0 2.0 5.0 5.0 0.0 9.0 8.0 7.0 7.0 6.0 7.0 7.0 9.0 9.0 8.0 2.0 3.0 8.0 2.0 9.0 9.0 0.0 3.0 7.0 
10.0 8.0 4.0 2.0 1.0 8.0 0.0 0.0 3.0 2.0 8.0 4.0 5.0 4.0 5.0 4.0 7.0 1.0 10.0 5.0 -435.0 2.0 7.0 10.0 5.0 5.0 10.0 2.0 6.0 1.0 9.0 1.0 2.0 6.0 6.0 0.0 2.0 0.0 7.0 9.0 3.0 0.0 8.0 4.0 8.0 3.0 2.0 2.0 4.0 10.0 4.0 1.0 10.0 9.0 3.0 10.0 9.0 0.0 9.0 8.0 6.0 4.0 3.0 3.0 10.0 6.0 8.0 7.0 0.0 10.0 8.0 4.0 7.0 4.0 7.0 4.0 2.0 3.0 9.0 5.0 2.0 2.0 1.0 7.0 0.0 2.0 6.0 6.0 1.0 5.0 5.0 
3.0 6.0 5.0 9.0 5.0 8.0 3.0 3.0 3.0 0.0 2.0 4.0 0.0 7.0 1.0 6.0 0.0 1.0 4.0 7.0 2.0 -408.0 7.0 10.0 5.0 9.0 6.0 9.0 6.0 8.0 0.0 5.0 2.0 5.0 0.0 1.0 9.0 0.0 1.0 10.0 2.0 2.0 4.0 1.0 5.0 1.0 8.0 10.0 6.0 0.0 9.0 6.0 10.0 1.0 6.0 10.0 7.0 2.0 4.0 9.0 2.0 5.0 3.0 7.0 0.0 10.0 1.0 10.0 0.0 9.0 9.0 0.0 7.0 2.0 0.0 0.0 5.0 5.0 5.0 0.0 5.0 7.0 7.0 2.0 8.0 0.0 3.0 7.0 7.0 3.0 4.0 
9.0 2.0 9.0 3.0 5.0 8.0 10.0 7.0 5.0 0.0 6.0 9.0 10.0 2.0 4.0 2.0 2.0 8.0 0.0 6.0 7.0 7.0 -512.0 7.0 8.0 9.0 10.0 3.0 4.0 9.0 2.0 6.0 5.0 1.0 6.0 7.0 4.0 9.0 10.0 0.0 7.0 10.0 10.0 1.0 7.0 1.0 8.0 10.0 7.0 6.0 3.0 1.0 3.0 4.0 4.0 0.0 10.0 7.0 10.0 9.0 7.0 0.0 5.0 0.0 1.0 0.0 3.0 10.0 0.0 10.0 10.0 9.0 9.0 3.0 10.0 8.0 1.0 7.0 8.0 6.0 6.0 0.0 8.0 10.0 4.0 10.0 10.0 1.0 1.0 10.0 6.0 
7.0 2.0 10.0 10.0 6.0 0.0 10.0 3.0 0.0 9.0 6.0 9.0 5.0 4.0 7.0 5.0 0.0 1.0 9.0 1.0 10.0 10.0 7.0 -488.0 10.0 9.0 1.0 4.0 5.0 7.0 8.0 7.0 1.0 4.0 9.0 1.0 0.0 6.0 8.0 6.0 10.0 2.0 6.0 5.0 10.0 10.0 3.0 6.0 0.0 8.0 8.0 6.0 3.0 0.0 1.0 6.0 2.0 10.0 2.0 7.0 3.0 5.0 0.0 4.0 9.0 10.0 3.0 3.0 10.0 7.0 0.0 3.0 8.0 0.0 7.0 6.0 10.0 10.0 6.0 3.0 7.0 3.0 2.0 10.0 0.0 7.0 9.0 7.0 10.0 1.0 3.0 
7.0 6.0 3.0 1.0 0.0 0.0 5.0 7.0 1.0 7.0 3.0 8.0 4.0 10.0 5.0 5.0 6.0 10.0 7.0 10.0 5.0 5.0 8.0 10.0 -446.0 7.0 5.0 9.0 1.0 7.0 7.0 0.0 1.0 3.0 7.0 1.0 5.0 6.0 9.0 9.0 5.0 5.0 3.0 8.0 4.0 9.0 5.0 4.0 4.0 2.0 7.0 9.0 7.0 5.0 1.0 0.0 1.0 10.0 10.0 2.0 3.0 8.0 9.0 8.0 10.0 4.0 1.0 4.0 4.0 6.0 10.0 1.0 2.0 5.0 3.0 8.0 4.0 0.0 2.0 3.0 4.0 1.0 4.0 1.0 3.0 0.0 8.0 9.0 4.0 3.0 3.0 
2.0 10.0 9.0 3.0 4.0 5.0 1.0 8.0 7.0 9.0 8.0 5.0 5.0 4.0 1.0 7.0 2.0 7.0 5.0 0.0 5.0 9.0 9.0 9.0 7.0 -432.0 8.0 3.0 0.0 5.0 5.0 10.0 0.0 3.0 8.0 4.0 6.0 8.0 3.0 4.0 2.0 2.0 2.0 2.0 9.0 5.0 4.0 7.0 0.0 0.0 0.0 2.0 7.0 7.0 6.0 9.0 6.0 10.0 1.0 4.0 4.0 7.0 2.0 6.0 6.0 7.0 3.0 9.0 3.0 9.0 1.0 7.0 1.0 9.0 7.0 8.0 3.0 0.0 5.0 8.0 2.0 6.0 2.0 3.0 5.0 4.0 5.0 7.0 0.0 0.0 0.0 
1.0 2.0 9.0 3.0 1.0 0.0 8.0 5.0 8.0 5.0 8.0 5.0 10.0 3.0 0.0 4.0 8.0 6.0 0.0 2.0 10.0 6.0 10.0 1.0 5.0 8.0 -457.0 3.0 8.0 6.0 2.0 4.0 0.0 5.0 5.0 1.0 5.0 3.0 0.0 5.0 3.0 8.0 10.0 4.0 0.0 5.0 4.0 9.0 0.0 3.0 1.0 3.0 3.0 7.0 10.0 10.0 8.0 2.0 2.0 9.0 4.0 9.0 8.0 6.0 8.0 7.0 7.0 6.0 4.0 2.0 4.0 6.0 10.0 1.0 2.0 4.0 5.0 4.0 8.0 4.0 2.0 4.0 7.0 7.0 8.0 9.0 10.0 10.0 9.0 2.0 4.0 
8.0 7.0 10.0 9.0 4.0 2.0 7.0 0.0 4.0 2.0 0.0 1.0 2.0 10.0 8.0 4.0 3.0 3.0 1.0 8.0 2.0 9.0 3.0 4.0 9.0 3.0 3.0 -453.0 3.0 4.0 8.0 5.0 8.0 9.0 2.0 3.0 0.0 0.0 8.0 10.0 0.0 8.0 6.0 2.0 7.0 3.0 9.0 0.0 8.0 8.0 3.0 8.0 2.0 3.0 5.0 2.0 5.0 8.0 5.0 0.0 10.0 2.0 9.0 9.0 2.0 1.0 9.0 6.0 7.0 0.0 2.0 7.0 7.0 4.0 8.0 7.0 7.0 9.0 8.0 2.0 8.0 7.0 6.0 10.0 2.0 0.0 0.0 3.0 9.0 8.0 6.0 
7.0 2.0 5.0 3.0 6.0 1.0 9.0 8.0 2.0 10.0 10.0 10.0 6.0 0.0 10.0 8.0 4.0 5.0 7.0 5.0 6.0 6.0 4.0 5.0 1.0 0.0 8.0 3.0 -464.0 6.0 0.0 2.0 9.0 8.0 9.0 6.0 7.0 1.0 9.0 3.0 9.0 4.0 7.0 3.0 2.0 6.0 0.0 8.0 10.0 0.0 9.0 5.0 6.0 9.0 9.0 6.0 5.0 5.0 2.0 2.0 10.0 6.0 6.0 10.0 10.0 0.0 0.0 0.0 0.0 7.0 4.0 2.0 7.0 0.0 0.0 10.0 10.0 0.0 6.0 10.0 10.0 3.0 0.0 7.0 1.0 5.0 2.0 9.0 0.0 6.0 5.0 
7.0 4.0 10.0 7.0 3.0 9.0 5.0 7.0 0.0 6.0 1.0 8.0 4.0 9.0 10.0 3.0 9.0 7.0 5.0 1.0 1.0 8.0 9.0 7.0 7.0 5.0 6.0 4.0 6.0 -449.0 3.0 5.0 1.0 1.0 6.0 5.0 1.0 2.0 6.0 1.0 8.0 3.0 3.0 2.0 2.0 0.0 0.0 9.0 7.0 3.0 9.0 0.0 5.0 6.0 10.0 5.0 7.0 8.0 6.0 0.0 3.0 0.0 10.0 3.0 10.0 8.0 6.0 10.0 9.0 5.0 5.0 7.0 7.0 1.0 10.0 8.0 6.0 0.0 0.0 0.0 3.0 4.0 7.0 9.0 6.0 2.0 5.0 3.0 6.0 2.0 2.0 
8.0 6.0 7.0 6.0 3.0 4.0 0.0 10.0 9.0 4.0 0.0 9.0 4.0 1.0 5.0 0.0 4.0 3.0 1.0 3.0 9.0 0.0 2.0 8.0 7.0 5.0 2.0 8.0 0.0 3.0 -433.0 8.0 7.0 6.0 4.0 2.0 3.0 3.0 1.0 3.0 6.0 0.0 10.0 10.0 10.0 0.0 5.0 9.0 7.0 1.0 10.0 3.0 10.0 9.0 7.0 5.0 1.0 0.0 7.0 10.0 9.0 9.0 8.0 5.0 1.0 6.0 10.0 1.0 8.0 4.0 6.0 3.0 0.0 9.0 6.0 3.0 2.0 3.0 10.0 6.0 3.0 6.0 6.0 1.0 3.0 0.0 6.0 1.0 0.0 5.0 5.0 
9.0 1.0 0.0 5.0 7.0 6.0 9.0 1.0 3.0 7.0 1.0 8.0 6.0 3.0 7.0 5.0 8.0 10.0 3.0 4.0 1.0 5.0 6.0 7.0 0.0 10.0 4.0 5.0 2.0 5.0 8.0 -439.0 3.0 2.0 7.0 4.0 3.0 0.0 4.0 7.0 1.0 0.0 4.0 2.0 10.0 7.0 4.0 6.0 2.0 1.0 0.0 2.0 10.0 8.0 2.0 2.0 3.0 8.0 7.0 3.0 0.0 10.0 2.0 10.0 4.0 1.0 2.0 3.0 7.0 8.0 4.0 4.0 7.0 4.0 10.0 7.0 10.0 1.0 7.0 2.0 10.0 8.0 9.0 0.0 1.0 1.0 10.0 9.0 10.0 10.0 0.0 
8.0 1.0 3.0 10.0 2.0 1.0 2.0 0.0 9.0 3.0 8.0 2.0 2.0 1.0 7.0 7.0 1.0 2.0 7.0 2.0 2.0 2.0 5.0 1.0 1.0 0.0 0.0 8.0 9.0 1.0 7.0 3.0 -398.0 1.0 5.0 8.0 3.0 9.0 3.0 0.0 0.0 1.0 7.0 0.0 9.0 3.0 4.0 4.0 7.0 4.0 7.0 9.0 7.0 3.0 8.0 10.0 1.0 4.0 2.0 3.0 4.0 0.0 6.0 1.0 8.0 8.0 9.0 1.0 6.0 4.0 7.0 1.0 9.0 2.0 3.0 1.0 4.0 6.0 6.0 2.0 4.0 8.0 7.0 8.0 1.0 7.0 2.0 10.0 8.0 10.0 6.0 
9.0 10.0 0.0 8.0 4.0 0.0 6.0 2.0 4.0 3.0 3.0 1.0 9.0 9.0 7.0 1.0 4.0 9.0 8.0 7.0 6.0 5.0 1.0 4.0 3.0 3.0 5.0 9.0 8.0 1.0 6.0 2.0 1.0 -407.0 6.0 0.0 7.0 3.0 4.0 5.0 2.0 1.0 1.0 3.0 0.0 8.0 2.0 5.0 5.0 5.0 1.0 0.0 9.0 8.0 7.0 1.0 8.0 0.0 2.0 6.0 4.0 9.0 10.0 1.0 0.0 8.0 8.0 2.0 1.0 4.0 0.0 0.0 8.0 9.0 0.0 7.0 1.0 3.0 5.0 3.0 6.0 10.0 10.0 3.0 9.0 1.0 8.0 1.0 10.0 2.0 7.0 
3.0 7.0 5.0 10.0 3.0 4.0 6.0 6.0 9.0 7.0 1.0 6.0 2.0 5.0 9.0 2.0 0.0 10.0 2.0 7.0 6.0 0.0 6.0 9.0 7.0 8.0 5.0 2.0 9.0 6.0 4.0 7.0 5.0 6.0 -471.0 0.0 0.0 7.0 8.0 1.0 7.0 6.0 3.0 4.0 9.0 9.0 7.0 9.0 4.0 4.0 6.0 1.0 0.0 9.0 5.0 7.0 1.0 5.0 4.0 8.0 3.0 6.0 5.0 10.0 5.0 8.0 7.0 4.0 0.0 6.0 7.0 1.0 2.0 10.0 9.0 9.0 0.0 5.0 8.0 1.0 2.0 8.0 8.0 5.0 7.0 4.0 1.0 6.0 9.0 2.0 5.0 
6.0 4.0 9.0 0.0 8.0 10.0 9.0 1.0 6.0 9.0 2.0 5.0 5.0 3.0 8.0 0.0 4.0 9.0 6.0 0.0 0.0 1.0 7.0 1.0 1.0 4.0 1.0 3.0 6.0 5.0 2.0 4.0 8.0 0.0 0.0 -412.0 7.0 9.0 10.0 6.0 5.0 6.0 1.0 3.0 5.0 1.0 6.0 3.0 9.0 7.0 10.0 6.0 6.0 9.0 3.0 0.0 9.0 6.0 9.0 5.0 0.0 6.0 8.0 8.0 5.0 2.0 0.0 4.0 2.0 10.0 4.0 2.0 10.0 3.0 4.0 8.0 1.0 0.0 2.0 3.0 0.0 9.0 4.0 4.0 0.0 9.0 8.0 1.0 4.0 2.0 1.0 
1.0 3.0 9.0 0.0 1.0 1.0 4.0 4.0 8.0 5.0 2.0 7.0 5.0 9.0 10.0 0.0 0.0 5.0 5.0 9.0 2.0 9.0 4.0 0.0 5.0 6.0 5.0 0.0 7.0 1.0 3.0 3.0 3.0 7.0 0.0 7.0 -423.0 2.0 2.0 5.0 8.0 7.0 8.0 0.0 9.0 6.0 10.0 7.0 7.0 1.0 4.0 6.0 1.0 10.0 2.0 10.0 9.0 6.0 3.0 0.0 5.0 4.0 10.0 9.0 5.0 6.0 0.0 7.0 1.0 7.0 4.0 5.0 3.0 2.0 1.0 2.0 7.0 0.0 5.0 2.0 5.0 6.0 10.0 3.0 2.0 7.0 1.0 8.0 6.0 10.0 7.0 
0.0 4.0 6.0 2.0 3.0 6.0 2.0 4.0 5.0 4.0 8.0 0.0 9.0 2.0 1.0 8.0 4.0 9.0 2.0 3.0 0.0 0.0 9.0 6.0 6.0 8.0 3.0 0.0 1.0 2.0 3.0 0.0 9.0 3.0 7.0 9.0 2.0 -402.0 7.0 1.0 7.0 8.0 2.0 9.0 8.0 5.0 7.0 5.0 4.0 5.0 8.0 9.0 6.0 9.0 6.0 1.0 6.0 3.0 1.0 3.0 3.0 0.0 2.0 8.0 7.0 9.0 5.0 3.0 2.0 7.0 1.0 0.0 6.0 1.0 0.0 7.0 3.0 9.0 2.0 8.0 6.0 7.0 2.0 2.0 1.0 5.0 4.0 8.0 4.0 1.0 9.0 
6.0 5.0 8.0 3.0 0.0 5.0 1.0 9.0 7.0 2.0 7.0 10.0 10.0 4.0 3.0 2.0 4.0 4.0 4.0 8.0 7.0 1.0 10.0 8.0 9.0 3.0 0.0 8.0 9.0 6.0 1.0 4.0 3.0 4.0 8.0 10.0 2.0 7.0 -510.0 7.0 5.0 0.0 7.0 9.0 7.0 9.0 7.0 8.0 7.0 6.0 5.0 10.0 9.0 10.0 10.0 4.0 1.0 8.0 10.0 8.0 1.0 1.0 2.0 4.0 0.0 2.0 1.0 4.0 6.0 10.0 4.0 3.0 3.0 6.0 9.0 7.0 2.0 2.0 10.0 7.0 10.0 9.0 3.0 8.0 8.0 10.0 4.0 9.0 10.0 6.0 0.0 
0.0 7.0 6.0 6.0 0.0 8.0 4.0 9.0 6.0 9.0 0.0 5.0 5.0 6.0 6.0 10.0 7.0 3.0 9.0 0.0 9.0 10.0 0.0 6.0 9.0 4.0 5.0 10.0 3.0 1.0 3.0 7.0 0.0 5.0 1.0 6.0 5.0 1.0 7.0 -410.0 10.0 0.0 0.0 1.0 2.0 5.0 10.0 0.0 2.0 1.0 10.0 3.0 6.0 1.0 10.0 3.0 4.0 8.0 10.0 1.0 0.0 3.0 10.0 7.0 1.0 5.0 9.0 9.0 4.0 10.0 4.0 0.0 5.0 7.0 6.0 2.0 2.0 0.0 1.0 1.0 6.0 3.0 2.0 7.0 1.0 4.0 2.0 2.0 8.0 3.0 1.0 
0.0 1.0 7.0 4.0 0.0 1.0 6.0 5.0 9.0 8.0 8.0 3.0 8.0 7.0 3.0 6.0 6.0 9.0 1.0 7.0 3.0 2.0 7.0 10.0 5.0 2.0 3.0 0.0 9.0 8.0 6.0 1.0 0.0 2.0 7.0 5.0 8.0 7.0 5.0 10.0 -442.0 0.0 8.0 10.0 3.0 5.0 9.0 6.0 1.0 6.0 4.0 3.0 2.0 3.0 10.0 2.0 1.0 10.0 2.0 6.0 10.0 5.0 7.0 6.0 5.0 7.0 4.0 0.0 1.0 0.0 2.0 5.0 5.0 5.0 7.0 5.0 8.0 2.0 6.0 8.0 8.0 1.0 4.0 5.0 9.0 4.0 1.0 3.0 3.0 10.0 6.0 
4.0 4.0 7.0 0.0 1.0 8.0 3.0 9.0 3.0 1.0 5.0 3.0 3.0 7.0 7.0 8.0 2.0 8.0 2.0 5.0 0.0 2.0 10.0 2.0 5.0 2.0 8.0 8.0 4.0 3.0 0.0 0.0 1.0 1.0 6.0 6.0 7.0 8.0 0.0 0.0 0.0 -408.0 10.0 8.0 1.0 5.0 3.0 0.0 2.0 6.0 4.0 0.0 5.0 0.0 3.0 0.0 7.0 1.0 2.0 4.0 7.0 1.0 10.0 4.0 8.0 3.0 5.0 6.0 5.0 10.0 7.0 5.0 6.0 9.0 7.0 7.0 7.0 9.0 5.0 8.0 1.0 5.0 10.0 1.0 10.0 9.0 9.0 6.0 2.0 1.0 1.0 
1.0 3.0 5.0 2.0 1.0 1.0 6.0 0.0 9.0 0.0 7.0 5.0 8.0 1.0 2.0 8.0 1.0 0.0 8.0 5.0 8.0 4.0 10.0 6.0 3.0 2.0 10.0 6.0 7.0 3.0 10.0 4.0 7.0 1.0 3.0 1.0 8.0 2.0 7.0 0.0 8.0 10.0 -423.0 4.0 6.0 7.0 10.0 9.0 8.0 3.0 4.0 8.0 9.0 2.0 6.0 9.0 3.0 0.0 0.0 0.0 1.0 4.0 5.0 5.0 5.0 8.0 3.0 5.0 3.0 5.0 6.0 7.0 7.0 4.0 3.0 4.0 10.0 6.0 0.0 7.0 4.0 7.0 1.0 4.0 3.0 7.0 0.0 5.0 4.0 4.0 5.0 
9.0 9.0 7.0 4.0 8.0 10.0 10.0 1.0 9.0 2.0 4.0 7.0 9.0 9.0 4.0 8.0 6.0 9.0 3.0 4.0 4.0 1.0 1.0 5.0 8.0 2.0 4.0 2.0 3.0 2.0 10.0 2.0 0.0 3.0 4.0 3.0 0.0 9.0 9.0 1.0 10.0 8.0 4.0 -439.0 8.0 8.0 0.0 9.0 6.0 2.0 6.0 4.0 7.0 2.0 7.0 3.0 7.0 1.0 8.0 7.0 10.0 5.0 2.0 6.0 4.0 1.0 5.0 1.0 2.0 0.0 6.0 7.0 6.0 2.0 0.0 6.0 3.0 4.0 0.0 9.0 6.0 7.0 6.0 0.0 8.0 1.0 10.0 0.0 1.0 1.0 8.0 
8.0 7.0 0.0 0.0 10.0 2.0 2.0 7.0 3.0 4.0 5.0 9.0 5.0 3.0 7.0 4.0 8.0 6.0 3.0 1.0 8.0 5.0 7.0 10.0 4.0 9.0 0.0 7.0 2.0 2.0 10.0 10.0 9.0 0.0 9.0 5.0 9.0 8.0 7.0 2.0 3.0 1.0 6.0 8.0 -479.0 9.0 1.0 7.0 6.0 0.0 1.0 8.0 8.0 10.0 2.0 4.0 8.0 5.0 2.0 9.0 1.0 9.0 10.0 5.0 9.0 9.0 10.0 5.0 7.0 0.0 6.0 5.0 3.0 1.0 9.0 7.0 5.0 7.0 1.0 4.0 3.0 10.0 10.0 4.0 2.0 6.0 1.0 6.0 1.0 3.0 5.0 
8.0 9.0 6.0 5.0 3.0 2.0 9.0 7.0 0.0 10.0 9.0 8.0 4.0 7.0 9.0 5.0 6.0 6.0 10.0 5.0 3.0 1.0 1.0 10.0 9.0 5.0 5.0 3.0 6.0 0.0 0.0 7.0 3.0 8.0 9.0 1.0 6.0 5.0 9.0 5.0 5.0 5.0 7.0 8.0 9.0 -490.0 2.0 8.0 0.0 6.0 8.0 3.0 6.0 10.0 3.0 3.0 6.0 5.0 3.0 2.0 1.0 9.0 2.0 3.0 6.0 2.0 9.0 7.0 6.0 3.0 10.0 7.0 10.0 2.0 0.0 7.0 10.0 10.0 10.0 2.0 4.0 10.0 0.0 2.0 6.0 4.0 4.0 4.0 3.0 6.0 8.0 
8.0 6.0 3.0 5.0 3.0 7.0 2.0 9.0 6.0 1.0 3.0 0.0 8.0 3.0 7.0 6.0 8.0 2.0 5.0 5.0 2.0 8.0 8.0 3.0 5.0 4.0 4.0 9.0 0.0 0.0 5.0 4.0 4.0 2.0 7.0 6.0 10.0 7.0 7.0 10.0 9.0 3.0 10.0 0.0 1.0 2.0 -482.0 7.0 2.0 8.0 9.0 6.0 5.0 10.0 0.0 6.0 9.0 7.0 9.0 3.0 1.0 10.0 1.0 3.0 7.0 0.0 8.0 9.0 9.0 7.0 2.0 6.0 3.0 2.0 8.0 7.0 2.0 8.0 3.0 2.0 5.0 4.0 10.0 9.0 7.0 4.0 10.0 6.0 10.0 6.0 5.0 
10.0 5.0 8.0 0.0 10.0 10.0 6.0 0.0 10.0 10.0 3.0 2.0 8.0 8.0 5.0 5.0 8.0 9.0 6.0 5.0 2.0 10.0 10.0 6.0 4.0 7.0 9.0 0.0 8.0 9.0 9.0 6.0 4.0 5.0 9.0 3.0 7.0 5.0 8.0 0.0 6.0 0.0 9.0 9.0 7.0 8.0 7.0 -520.0 5.0 6.0 3.0 5.0 2.0 5.0 2.0 5.0 2.0 6.0 9.0 2.0 9.0 7.0 9.0 10.0 9.0 6.0 6.0 10.0 7.0 3.0 6.0 8.0 8.0 7.0 1.0 5.0 0.0 3.0 8.0 1.0 5.0 2.0 2.0 8.0 8.0 8.0 6.0 8.0 0.0 1.0 2.0 
8.0 9.0 5.0 4.0 10.0 4.0 3.0 6.0 2.0 6.0 1.0 0.0 9.0 4.0 10.0 4.0 10.0 8.0 3.0 1.0 4.0 6.0 7.0 0.0 4.0 0.0 0.0 8.0 10.0 7.0 7.0 2.0 7.0 5.0 4.0 9.0 7.0 4.0 7.0 2.0 1.0 2.0 8.0 6.0 6.0 0.0 2.0 5.0 -435.0 0.0 6.0 5.0 7.0 3.0 2.0 3.0 4.0 10.0 8.0 5.0 3.0 6.0 6.0 9.0 2.0 3.0 10.0 8.0 1.0 8.0 1.0 3.0 2.0 4.0 7.0 1.0 0.0 8.0 1.0 9.0 1.0 10.0 3.0 1.0 8.0 3.0 0.0 4.0 8.0 9.0 6.0 
6.0 7.0 8.0 2.0 0.0 4.0 6.0 10.0 0.0 9.0 5.0 2.0 3.0 6.0 9.0 3.0 0.0 8.0 2.0 1.0 10.0 0.0 6.0 8.0 2.0 0.0 3.0 8.0 0.0 3.0 1.0 1.0 4.0 5.0 4.0 7.0 1.0 5.0 6.0 1.0 6.0 6.0 3.0 2.0 0.0 6.0 8.0 6.0 0.0 -429.0 10.0 10.0 9.0 7.0 7.0 3.0 4.0 3.0 2.0 8.0 1.0 2.0 1.0 6.0 8.0 8.0 4.0 10.0 2.0 5.0 8.0 0.0 4.0 6.0 3.0 9.0 10.0 2.0 3.0 8.0 9.0 3.0 3.0 8.0 10.0 4.0 2.0 4.0 8.0 2.0 10.0 
10.0 4.0 0.0 5.0 1.0 4.0 0.0 0.0 5.0 6.0 7.0 4.0 6.0 5.0 3.0 6.0 8.0 3.0 0.0 9.0 4.0 9.0 3.0 8.0 7.0 0.0 1.0 3.0 9.0 9.0 10.0 0.0 7.0 1.0 6.0 10.0 4.0 8.0 5.0 10.0 4.0 4.0 4.0 6.0 1.0 8.0 9.0 3.0 6.0 10.0 -455.0 6.0 8.0 5.0 9.0 2.0 10.0 10.0 2.0 4.0 2.0 7.0 0.0 10.0 6.0 6.0 0.0 6.0 10.0 3.0 4.0 2.0 2.0 9.0 4.0 2.0 2.0 1.0 7.0 9.0 4.0 8.0 8.0 4.0 3.0 8.0 7.0 3.0 5.0 1.0 1.0 
6.0 5.0 8.0 8.0 7.0 5.0 9.0 0.0 8.0 3.0 10.0 10.0 9.0 5.0 10.0 0.0 10.0 0.0 4.0 2.0 1.0 6.0 1.0 6.0 9.0 2.0 3.0 8.0 5.0 0.0 3.0 2.0 9.0 0.0 1.0 6.0 6.0 9.0 10.0 3.0 3.0 0.0 8.0 4.0 8.0 3.0 6.0 5.0 5.0 10.0 6.0 -437.0 7.0 2.0 6.0 1.0 0.0 8.0 3.0 2.0 7.0 4.0 8.0 5.0 5.0 0.0 3.0 8.0 4.0 1.0 1.0 4.0 0.0 6.0 3.0 5.0 1.0 7.0 8.0 7.0 2.0 6.0 8.0 2.0 1.0 2.0 10.0 5.0 9.0 3.0 6.0 
2.0 3.0 1.0 2.0 5.0 3.0 6.0 2.0 6.0 7.0 6.0 3.0 8.0 4.0 8.0 9.0 9.0 6.0 0.0 1.0 10.0 10.0 3.0 3.0 7.0 7.0 3.0 2.0 6.0 5.0 10.0 10.0 7.0 9.0 0.0 6.0 1.0 6.0 9.0 6.0 2.0 5.0 9.0 7.0 8.0 6.0 5.0 2.0 7.0 9.0 8.0 7.0 -455.0 4.0 10.0 2.0 4.0 4.0 4.0 2.0 7.0 3.0 3.0 8.0 8.0 0.0 5.0 1.0 0.0 9.0 2.0 5.0 4.0 7.0 4.0 3.0 2.0 8.0 6.0 3.0 1.0 4.0 0.0 2.0 6.0 9.0 2.0 6.0 3.0 8.0 10.0 
3.0 4.0 0.0 8.0 6.0 1.0 5.0 6.0 5.0 7.0 2.0 9.0 4.0 0.0 0.0 3.0 6.0 3.0 6.0 7.0 9.0 1.0 4.0 0.0 5.0 7.0 7.0 3.0 9.0 6.0 9.0 8.0 3.0 8.0 9.0 9.0 10.0 9.0 10.0 1.0 3.0 0.0 2.0 2.0 10.0 10.0 10.0 5.0 3.0 7.0 5.0 2.0 4.0 -446.0 4.0 5.0 1.0 3.0 7.0 9.0 9.0 6.0 1.0 2.0 2.0 3.0 6.0 5.0 2.0 7.0 9.0 1.0 9.0 3.0 3.0 5.0 4.0 10.0 3.0 9.0 4.0 1.0 1.0 4.0 2.0 9.0 3.0 3.0 6.0 5.0 5.0 
6.0 10.0 3.0 7.0 2.0 5.0 3.0 7.0 7.0 8.0 3.0 4.0 8.0 8.0 1.0 0.0 6.0 0.0 7.0 0.0 3.0 6.0 4.0 1.0 1.0 6.0 10.0 5.0 9.0 10.0 7.0 2.0 8.0 7.0 5.0 3.0 2.0 6.0 10.0 10.0 10.0 3.0 6.0 7.0 2.0 3.0 0.0 2.0 2.0 7.0 9.0 6.0 10.0 4.0 -446.0 3.0 0.0 1.0 8.0 7.0 8.0 3.0 10.0 2.0 2.0 1.0 9.0 8.0 5.0 8.0 1.0 3.0 7.0 10.0 4.0 0.0 7.0 1.0 1.0 2.0 9.0 6.0 2.0 2.0 8.0 1.0 4.0 6.0 1.0 8.0 7.0 
6.0 2.0 9.0 6.0 4.0 7.0 5.0 7.0 2.0 1.0 3.0 8.0 1.0 0.0 7.0 2.0 9.0 5.0 5.0 2.0 10.0 10.0 0.0 6.0 0.0 9.0 10.0 2.0 6.0 5.0 5.0 2.0 10.0 1.0 7.0 0.0 10.0 1.0 4.0 3.0 2.0 0.0 9.0 3.0 4.0 3.0 6.0 5.0 3.0 3.0 2.0 1.0 2.0 5.0 3.0 -426.0 6.0 6.0 4.0 8.0 1.0 10.0 1.0 8.0 10.0 10.0 5.0 2.0 5.0 1.0 5.0 7.0 10.0 3.0 3.0 6.0 0.0 9.0 6.0 6.0 4.0 6.0 10.0 2.0 0.0 3.0 9.0 0.0 8.0 9.0 0.0 
7.0 7.0 10.0 2.0 2.0 6.0 5.0 0.0 0.0 5.0 7.0 1.0 0.0 4.0 5.0 7.0 3.0 2.0 5.0 1.0 9.0 7.0 10.0 2.0 1.0 6.0 8.0 5.0 5.0 7.0 1.0 3.0 1.0 8.0 1.0 9.0 9.0 6.0 1.0 4.0 1.0 7.0 3.0 7.0 8.0 6.0 9.0 2.0 4.0 4.0 10.0 0.0 4.0 1.0 0.0 6.0 -412.0 5.0 10.0 2.0 0.0 7.0 1.0 0.0 6.0 5.0 7.0 10.0 8.0 0.0 4.0 9.0 7.0 0.0 0.0 6.0 10.0 3.0 7.0 1.0 6.0 3.0 10.0 0.0 1.0 2.0 5.0 8.0 5.0 0.0 10.0 
0.0 2.0 0.0 5.0 4.0 1.0 0.0 2.0 1.0 8.0 1.0 4.0 0.0 5.0 6.0 2.0 2.0 7.0 5.0 10.0 0.0 2.0 7.0 10.0 10.0 10.0 2.0 8.0 5.0 8.0 0.0 8.0 4.0 0.0 5.0 6.0 6.0 3.0 8.0 8.0 10.0 1.0 0.0 1.0 5.0 5.0 7.0 6.0 10.0 3.0 10.0 8.0 4.0 3.0 1.0 6.0 5.0 -412.0 5.0 4.0 7.0 7.0 9.0 0.0 1.0 2.0 4.0 3.0 7.0 0.0 2.0 4.0 9.0 1.0 2.0 4.0 10.0 4.0 10.0 10.0 4.0 6.0 2.0 6.0 0.0 8.0 3.0 5.0 5.0 6.0 2.0 
2.0 7.0 9.0 0.0 2.0 8.0 3.0 4.0 6.0 5.0 10.0 5.0 4.0 7.0 9.0 4.0 3.0 3.0 3.0 10.0 9.0 4.0 10.0 2.0 10.0 1.0 2.0 5.0 2.0 6.0 7.0 7.0 2.0 2.0 4.0 9.0 3.0 1.0 10.0 10.0 2.0 2.0 0.0 8.0 2.0 3.0 9.0 9.0 8.0 2.0 2.0 3.0 4.0 7.0 8.0 4.0 10.0 5.0 -491.0 1.0 9.0 9.0 10.0 3.0 10.0 6.0 6.0 7.0 5.0 5.0 10.0 10.0 8.0 7.0 8.0 5.0 0.0 9.0 7.0 1.0 9.0 10.0 1.0 8.0 6.0 0.0 9.0 2.0 2.0 7.0 3.0 
3.0 7.0 3.0 0.0 2.0 1.0 0.0 10.0 7.0 9.0 8.0 4.0 9.0 9.0 1.0 4.0 3.0 0.0 2.0 3.0 8.0 9.0 9.0 7.0 2.0 4.0 9.0 0.0 2.0 0.0 10.0 3.0 3.0 6.0 8.0 5.0 0.0 3.0 8.0 1.0 6.0 4.0 0.0 7.0 9.0 2.0 3.0 2.0 5.0 8.0 4.0 2.0 2.0 9.0 7.0 8.0 2.0 4.0 1.0 -432.0 3.0 9.0 7.0 1.0 9.0 5.0 7.0 1.0 3.0 6.0 9.0 1.0 4.0 3.0 2.0 0.0 7.0 9.0 6.0 7.0 9.0 4.0 5.0 6.0 8.0 9.0 7.0 2.0 5.0 2.0 9.0 
0.0 8.0 9.0 10.0 2.0 9.0 2.0 7.0 10.0 6.0 1.0 1.0 9.0 0.0 2.0 10.0 0.0 0.0 6.0 7.0 6.0 2.0 7.0 3.0 3.0 4.0 4.0 10.0 10.0 3.0 9.0 0.0 4.0 4.0 3.0 0.0 5.0 3.0 1.0 0.0 10.0 7.0 1.0 10.0 1.0 1.0 1.0 9.0 3.0 1.0 2.0 7.0 7.0 9.0 8.0 1.0 0.0 7.0 9.0 3.0 -435.0 6.0 2.0 9.0 1.0 9.0 0.0 4.0 4.0 4.0 10.0 0.0 2.0 6.0 5.0 10.0 7.0 6.0 10.0 1.0 7.0 1.0 7.0 9.0 1.0 8.0 10.0 7.0 1.0 7.0 4.0 
7.0 8.0 2.0 6.0 6.0 10.0 5.0 4.0 2.0 9.0 9.0 7.0 10.0 10.0 9.0 0.0 7.0 9.0 10.0 1.0 4.0 5.0 0.0 5.0 8.0 7.0 9.0 2.0 6.0 0.0 9.0 10.0 0.0 9.0 6.0 6.0 4.0 0.0 1.0 3.0 5.0 1.0 4.0 5.0 9.0 9.0 10.0 7.0 6.0 2.0 7.0 4.0 3.0 6.0 3.0 10.0 7.0 7.0 9.0 9.0 6.0 -487.0 2.0 1.0 3.0 5.0 9.0 3.0 2.0 8.0 9.0 0.0 10.0 0.0 4.0 0.0 7.0 0.0 1.0 6.0 8.0 9.0 6.0 1.0 3.0 6.0 7.0 5.0 5.0 4.0 9.0 
1.0 10.0 2.0 5.0 7.0 0.0 4.0 8.0 8.0 2.0 7.0 2.0 10.0 6.0 9.0 3.0 8.0 7.0 9.0 2.0 3.0 3.0 5.0 0.0 9.0 2.0 8.0 9.0 6.0 10.0 8.0 2.0 6.0 10.0 5.0 8.0 10.0 2.0 2.0 10.0 7.0 10.0 5.0 2.0 10.0 2.0 1.0 9.0 6.0 1.0 0.0 8.0 3.0 1.0 10.0 1.0 1.0 9.0 10.0 7.0 2.0 2.0 -480.0 8.0 1.0 8.0 0.0 7.0 8.0 9.0 0.0 3.0 5.0 0.0 9.0 3.0 5.0 10.0 6.0 4.0 10.0 5.0 0.0 5.0 8.0 7.0 2.0 5.0 10.0 1.0 6.0 
9.0 1.0 1.0 7.0 4.0 2.0 7.0 8.0 2.0 10.0 10.0 4.0 0.0 5.0 4.0 10.0 1.0 8.0 4.0 1.0 3.0 7.0 0.0 4.0 8.0 6.0 6.0 9.0 10.0 3.0 5.0 10.0 1.0 1.0 10.0 8.0 9.0 8.0 4.0 7.0 6.0 4.0 5.0 6.0 5.0 3.0 3.0 10.0 9.0 6.0 10.0 5.0 8.0 2.0 2.0 8.0 0.0 0.0 3.0 1.0 9.0 1.0 8.0 -456.0 6.0 3.0 5.0 1.0 8.0 9.0 0.0 7.0 8.0 3.0 0.0 2.0 3.0 4.0 8.0 6.0 0.0 2.0 2.0 3.0 2.0 7.0 6.0 6.0 5.0 10.0 9.0 
7.0 3.0 0.0 5.0 3.0 8.0 8.0 10.0 8.0 7.0 5.0 6.0 5.0 7.0 1.0 9.0 10.0 10.0 8.0 2.0 10.0 0.0 1.0 9.0 10.0 6.0 8.0 2.0 10.0 10.0 1.0 4.0 8.0 0.0 5.0 5.0 5.0 7.0 0.0 1.0 5.0 8.0 5.0 4.0 9.0 6.0 7.0 9.0 2.0 8.0 6.0 5.0 8.0 2.0 2.0 10.0 6.0 1.0 10.0 9.0 1.0 3.0 1.0 6.0 -468.0 2.0 0.0 4.0 8.0 0.0 2.0 6.0 2.0 7.0 1.0 3.0 2.0 0.0 0.0 9.0 5.0 7.0 5.0 8.0 2.0 3.0 8.0 7.0 5.0 8.0 7.0 
5.0 2.0 7.0 4.0 1.0 1.0 9.0 6.0 10.0 2.0 2.0 9.0 3.0 4.0 0.0 0.0 4.0 5.0 4.0 0.0 6.0 10.0 0.0 10.0 4.0 7.0 7.0 1.0 0.0 8.0 6.0 1.0 8.0 8.0 8.0 2.0 6.0 9.0 2.0 5.0 7.0 3.0 8.0 1.0 9.0 2.0 0.0 6.0 3.0 8.0 6.0 0.0 0.0 3.0 1.0 10.0 5.0 2.0 6.0 5.0 9.0 5.0 8.0 3.0 2.0 -436.0 4.0 7.0 8.0 10.0 8.0 10.0 1.0 7.0 8.0 6.0 8.0 0.0 5.0 9.0 0.0 5.0 4.0 8.0 8.0 4.0 7.0 4.0 3.0 0.0 4.0 
7.0 4.0 3.0 2.0 4.0 2.0 3.0 2.0 4.0 1.0 1.0 5.0 0.0 6.0 3.0 5.0 10.0 9.0 4.0 9.0 8.0 1.0 3.0 3.0 1.0 3.0 7.0 9.0 0.0 6.0 10.0 2.0 9.0 8.0 7.0 0.0 0.0 5.0 1.0 9.0 4.0 5.0 3.0 5.0 10.0 9.0 8.0 6.0 10.0 4.0 0.0 3.0 5.0 6.0 9.0 5.0 7.0 4.0 6.0 7.0 0.0 9.0 0.0 5.0 0.0 4.0 -455.0 9.0 9.0 0.0 1.0 5.0 10.0 8.0 5.0 5.0 9.0 6.0 0.0 10.0 10.0 6.0 4.0 5.0 6.0 8.0 6.0 9.0 3.0 2.0 9.0 
1.0 10.0 5.0 6.0 10.0 2.0 7.0 2.0 0.0 2.0 1.0 3.0 0.0 0.0 0.0 8.0 2.0 7.0 2.0 8.0 7.0 10.0 10.0 3.0 4.0 9.0 6.0 6.0 0.0 10.0 1.0 3.0 1.0 2.0 4.0 4.0 7.0 3.0 4.0 9.0 0.0 6.0 5.0 1.0 5.0 7.0 9.0 10.0 8.0 10.0 6.0 8.0 1.0 5.0 8.0 2.0 10.0 3.0 7.0 1.0 4.0 3.0 7.0 1.0 4.0 7.0 9.0 -430.0 3.0 4.0 10.0 4.0 3.0 2.0 4.0 0.0 9.0 9.0 2.0 3.0 2.0 0.0 7.0 3.0 10.0 10.0 0.0 1.0 2.0 7.0 9.0 
7.0 7.0 10.0 9.0 5.0 6.0 7.0 6.0 1.0 3.0 8.0 6.0 3.0 2.0 9.0 0.0 1.0 1.0 0.0 2.0 0.0 0.0 0.0 10.0 4.0 3.0 4.0 7.0 0.0 9.0 8.0 7.0 6.0 1.0 0.0 2.0 1.0 2.0 6.0 4.0 1.0 5.0 3.0 2.0 7.0 6.0 9.0 7.0 1.0 2.0 10.0 4.0 0.0 2.0 5.0 5.0 8.0 7.0 5.0 3.0 4.0 2.0 8.0 8.0 8.0 8.0 9.0 3.0 -430.0 3.0 7.0 8.0 4.0 9.0 3.0 4.0 10.0 6.0 7.0 0.0 8.0 6.0 5.0 8.0 8.0 0.0 0.0 8.0 10.0 7.0 0.0 
0.0 2.0 10.0 8.0 5.0 8.0 9.0 3.0 9.0 6.0 2.0 0.0 2.0 4.0 9.0 3.0 1.0 3.0 7.0 5.0 10.0 9.0 10.0 7.0 6.0 9.0 2.0 0.0 7.0 5.0 4.0 8.0 4.0 4.0 6.0 10.0 7.0 7.0 10.0 10.0 0.0 10.0 5.0 0.0 0.0 3.0 7.0 3.0 8.0 5.0 3.0 1.0 9.0 7.0 8.0 1.0 0.0 0.0 5.0 6.0 4.0 8.0 9.0 9.0 0.0 10.0 0.0 4.0 3.0 -489.0 10.0 0.0 5.0 6.0 3.0 1.0 3.0 9.0 8.0 4.0 3.0 10.0 8.0 10.0 6.0 10.0 9.0 10.0 8.0 4.0 3.0 
5.0 7.0 1.0 7.0 9.0 9.0 9.0 2.0 8.0 9.0 5.0 1.0 6.0 5.0 8.0 7.0 1.0 0.0 6.0 5.0 8.0 9.0 10.0 0.0 10.0 1.0 4.0 2.0 4.0 5.0 6.0 4.0 7.0 0.0 7.0 4.0 4.0 1.0 4.0 4.0 2.0 7.0 6.0 6.0 6.0 10.0 2.0 6.0 1.0 8.0 4.0 1.0 2.0 9.0 1.0 5.0 4.0 2.0 10.0 9.0 10.0 9.0 0.0 0.0 2.0 8.0 1.0 10.0 7.0 10.0 -465.0 5.0 9.0 6.0 7.0 5.0 1.0 8.0 6.0 0.0 2.0 8.0 10.0 1.0 3.0 9.0 5.0 3.0 6.0 9.0 0.0 
3.0 8.0 2.0 1.0 6.0 8.0 9.0 3.0 5.0 3.0 7.0 1.0 9.0 7.0 6.0 2.0 9.0 0.0 8.0 0.0 4.0 0.0 9.0 3.0 1.0 7.0 6.0 7.0 2.0 7.0 3.0 4.0 1.0 0.0 1.0 2.0 5.0 0.0 3.0 0.0 5.0 5.0 7.0 7.0 5.0 7.0 6.0 8.0 3.0 0.0 2.0 4.0 5.0 1.0 3.0 7.0 9.0 4.0 10.0 1.0 0.0 0.0 3.0 7.0 6.0 10.0 5.0 4.0 8.0 0.0 5.0 -414.0 1.0 3.0 5.0 10.0 4.0 7.0 8.0 10.0 3.0 10.0 8.0 9.0 6.0 0.0 0.0 2.0 8.0 10.0 1.0 
5.0 7.0 6.0 2.0 3.0 6.0 5.0 8.0 6.0 9.0 4.0 10.0 2.0 4.0 6.0 3.0 8.0 0.0 9.0 9.0 7.0 7.0 9.0 8.0 2.0 1.0 10.0 7.0 7.0 7.0 0.0 7.0 9.0 8.0 2.0 10.0 3.0 6.0 3.0 5.0 5.0 6.0 7.0 6.0 3.0 10.0 3.0 8.0 2.0 4.0 2.0 0.0 4.0 9.0 7.0 10.0 7.0 9.0 8.0 4.0 2.0 10.0 5.0 8.0 2.0 1.0 10.0 3.0 4.0 5.0 9.0 1.0 -500.0 0.0 5.0 8.0 7.0 6.0 10.0 7.0 4.0 5.0 6.0 3.0 4.0 2.0 0.0 8.0 3.0 8.0 10.0 
2.0 9.0 2.0 8.0 1.0 3.0 4.0 6.0 5.0 5.0 6.0 7.0 2.0 1.0 7.0 0.0 10.0 10.0 6.0 8.0 4.0 2.0 3.0 0.0 5.0 9.0 1.0 4.0 0.0 1.0 9.0 4.0 2.0 9.0 10.0 3.0 2.0 1.0 6.0 7.0 5.0 9.0 4.0 2.0 1.0 2.0 2.0 7.0 4.0 6.0 9.0 6.0 7.0 3.0 10.0 3.0 0.0 1.0 7.0 3.0 6.0 0.0 0.0 3.0 7.0 7.0 8.0 2.0 9.0 6.0 6.0 3.0 0.0 -416.0 9.0 3.0 5.0 8.0 3.0 4.0 7.0 2.0 0.0 0.0 3.0 7.0 8.0 8.0 6.0 8.0 3.0 
8.0 2.0 7.0 5.0 6.0 10.0 5.0 7.0 8.0 6.0 4.0 0.0 5.0 10.0 1.0 6.0 6.0 3.0 7.0 7.0 7.0 0.0 10.0 7.0 3.0 7.0 2.0 8.0 0.0 10.0 6.0 10.0 3.0 0.0 9.0 4.0 1.0 0.0 9.0 6.0 7.0 7.0 3.0 0.0 9.0 0.0 8.0 1.0 7.0 3.0 4.0 3.0 4.0 3.0 4.0 3.0 0.0 2.0 8.0 2.0 5.0 4.0 9.0 0.0 1.0 8.0 5.0 4.0 3.0 3.0 7.0 5.0 5.0 9.0 -434.0 4.0 10.0 4.0 1.0 1.0 10.0 0.0 3.0 10.0 9.0 10.0 4.0 0.0 5.0 0.0 2.0 
2.0 8.0 1.0 7.0 0.0 2.0 3.0 5.0 8.0 10.0 5.0 6.0 7.0 9.0 0.0 7.0 7.0 2.0 7.0 7.0 4.0 0.0 8.0 6.0 8.0 8.0 4.0 7.0 10.0 8.0 3.0 7.0 1.0 7.0 9.0 8.0 2.0 7.0 7.0 2.0 5.0 7.0 4.0 6.0 7.0 7.0 7.0 5.0 1.0 9.0 2.0 5.0 3.0 5.0 0.0 6.0 6.0 4.0 5.0 0.0 10.0 0.0 3.0 2.0 3.0 6.0 5.0 0.0 4.0 1.0 5.0 10.0 8.0 3.0 4.0 -474.0 8.0 4.0 4.0 9.0 8.0 10.0 5.0 7.0 6.0 4.0 7.0 3.0 4.0 9.0 9.0 
8.0 10.0 3.0 0.0 8.0 0.0 2.0 6.0 1.0 1.0 1.0 5.0 4.0 1.0 3.0 10.0 3.0 9.0 5.0 6.0 2.0 5.0 1.0 10.0 4.0 3.0 5.0 7.0 10.0 6.0 2.0 10.0 4.0 1.0 0.0 1.0 7.0 3.0 2.0 2.0 8.0 7.0 10.0 3.0 5.0 10.0 2.0 0.0 0.0 10.0 2.0 1.0 2.0 4.0 7.0 0.0 10.0 10.0 0.0 7.0 7.0 7.0 5.0 3.0 2.0 8.0 9.0 9.0 10.0 3.0 1.0 4.0 7.0 5.0 10.0 8.0 -433.0 6.0 6.0 10.0 2.0 1.0 8.0 1.0 4.0 10.0 5.0 6.0 4.0 1.0 2.0 
3.0 2.0 3.0 0.0 2.0 1.0 5.0 10.0 6.0 9.0 6.0 9.0 3.0 2.0 5.0 8.0 9.0 4.0 2.0 7.0 3.0 5.0 7.0 10.0 0.0 0.0 4.0 9.0 0.0 0.0 3.0 1.0 6.0 3.0 5.0 0.0 0.0 9.0 2.0 0.0 2.0 9.0 6.0 4.0 7.0 10.0 8.0 3.0 8.0 2.0 1.0 7.0 8.0 10.0 1.0 9.0 3.0 4.0 9.0 9.0 6.0 0.0 10.0 4.0 0.0 0.0 6.0 9.0 6.0 9.0 8.0 7.0 6.0 8.0 4.0 4.0 6.0 -436.0 10.0 3.0 5.0 0.0 2.0 1.0 9.0 8.0 8.0 3.0 1.0 8.0 2.0 
5.0 9.0 5.0 1.0 1.0 1.0 6.0 3.0 4.0 1.0 4.0 3.0 9.0 0.0 8.0 4.0 1.0 5.0 10.0 7.0 9.0 5.0 8.0 6.0 2.0 5.0 8.0 8.0 6.0 0.0 10.0 7.0 6.0 5.0 8.0 2.0 5.0 2.0 10.0 1.0 6.0 5.0 0.0 0.0 1.0 10.0 3.0 8.0 1.0 3.0 7.0 8.0 6.0 3.0 1.0 6.0 7.0 10.0 7.0 6.0 10.0 1.0 6.0 8.0 0.0 5.0 0.0 2.0 7.0 8.0 6.0 8.0 10.0 3.0 1.0 4.0 6.0 10.0 -454.0 2.0 10.0 9.0 7.0 2.0 10.0 5.0 1.0 7.0 6.0 1.0 1.0 
8.0 1.0 2.0 1.0 4.0 1.0 7.0 5.0 6.0 5.0 2.0 1.0 4.0 8.0 3.0 7.0 6.0 8.0 3.0 9.0 5.0 0.0 6.0 3.0 3.0 8.0 4.0 2.0 10.0 0.0 6.0 2.0 2.0 3.0 1.0 3.0 2.0 8.0 7.0 1.0 8.0 8.0 7.0 9.0 4.0 2.0 2.0 1.0 9.0 8.0 9.0 7.0 3.0 9.0 2.0 6.0 1.0 10.0 1.0 7.0 1.0 6.0 4.0 6.0 9.0 9.0 10.0 3.0 0.0 4.0 0.0 10.0 7.0 4.0 1.0 9.0 10.0 3.0 2.0 -432.0 2.0 3.0 8.0 10.0 2.0 5.0 10.0 0.0 1.0 10.0 3.0 
5.0 9.0 0.0 3.0 8.0 6.0 0.0 0.0 9.0 1.0 0.0 4.0 6.0 6.0 6.0 9.0 10.0 1.0 0.0 9.0 2.0 5.0 6.0 7.0 4.0 2.0 2.0 8.0 10.0 3.0 3.0 10.0 4.0 6.0 2.0 0.0 5.0 6.0 10.0 6.0 8.0 1.0 4.0 6.0 3.0 4.0 5.0 5.0 1.0 9.0 4.0 2.0 1.0 4.0 9.0 4.0 6.0 4.0 9.0 9.0 7.0 8.0 10.0 0.0 5.0 0.0 10.0 2.0 8.0 3.0 2.0 3.0 4.0 7.0 10.0 8.0 2.0 5.0 10.0 2.0 -438.0 5.0 6.0 0.0 6.0 2.0 5.0 1.0 5.0 9.0 2.0 
0.0 10.0 9.0 9.0 9.0 7.0 8.0 3.0 9.0 4.0 6.0 6.0 4.0 0.0 9.0 3.0 10.0 10.0 3.0 8.0 2.0 7.0 0.0 3.0 1.0 6.0 4.0 7.0 3.0 4.0 6.0 8.0 8.0 10.0 8.0 9.0 6.0 7.0 9.0 3.0 1.0 5.0 7.0 7.0 10.0 10.0 4.0 2.0 10.0 3.0 8.0 6.0 4.0 1.0 6.0 6.0 3.0 6.0 10.0 4.0 1.0 9.0 5.0 2.0 7.0 5.0 6.0 0.0 6.0 10.0 8.0 10.0 5.0 2.0 0.0 10.0 1.0 0.0 9.0 3.0 5.0 -501.0 0.0 10.0 2.0 2.0 6.0 10.0 7.0 3.0 6.0 
3.0 0.0 2.0 2.0 8.0 9.0 1.0 10.0 5.0 9.0 7.0 3.0 8.0 8.0 7.0 2.0 9.0 7.0 10.0 2.0 1.0 7.0 8.0 2.0 4.0 2.0 7.0 6.0 0.0 7.0 6.0 9.0 7.0 10.0 8.0 4.0 10.0 2.0 3.0 2.0 4.0 10.0 1.0 6.0 10.0 0.0 10.0 2.0 3.0 3.0 8.0 8.0 0.0 1.0 2.0 10.0 10.0 2.0 1.0 5.0 7.0 6.0 0.0 2.0 5.0 4.0 4.0 7.0 5.0 8.0 10.0 8.0 6.0 0.0 3.0 5.0 8.0 2.0 7.0 8.0 6.0 0.0 -463.0 4.0 5.0 5.0 2.0 8.0 6.0 3.0 6.0 
4.0 0.0 4.0 8.0 7.0 7.0 5.0 0.0 10.0 7.0 7.0 2.0 9.0 9.0 3.0 2.0 7.0 1.0 1.0 3.0 7.0 2.0 10.0 10.0 1.0 3.0 7.0 10.0 7.0 9.0 1.0 0.0 8.0 3.0 5.0 4.0 3.0 2.0 8.0 7.0 5.0 1.0 4.0 0.0 4.0 2.0 9.0 8.0 1.0 8.0 4.0 2.0 2.0 4.0 2.0 2.0 0.0 6.0 8.0 6.0 9.0 1.0 5.0 3.0 8.0 8.0 5.0 3.0 8.0 10.0 1.0 9.0 3.0 0.0 10.0 7.0 1.0 1.0 2.0 10.0 0.0 10.0 4.0 -443.0 9.0 5.0 3.0 7.0 8.0 5.0 7.0 
10.0 0.0 2.0 9.0 6.0 5.0 4.0 7.0 9.0 0.0 5.0 9.0 2.0 8.0 6.0 10.0 9.0 6.0 4.0 8.0 0.0 8.0 4.0 0.0 3.0 5.0 8.0 2.0 1.0 6.0 3.0 1.0 1.0 9.0 7.0 0.0 2.0 1.0 8.0 1.0 9.0 10.0 3.0 8.0 2.0 6.0 7.0 8.0 8.0 10.0 3.0 1.0 6.0 2.0 8.0 0.0 1.0 0.0 6.0 8.0 1.0 3.0 8.0 2.0 2.0 8.0 6.0 10.0 8.0 6.0 3.0 6.0 4.0 3.0 9.0 6.0 4.0 9.0 10.0 2.0 6.0 2.0 5.0 9.0 -459.0 0.0 5.0 9.0 9.0 4.0 5.0 
5.0 0.0 4.0 2.0 5.0 2.0 0.0 8.0 5.0 5.0 6.0 6.0 8.0 0.0 2.0 2.0 0.0 2.0 2.0 2.0 2.0 0.0 10.0 7.0 0.0 4.0 9.0 0.0 5.0 2.0 0.0 1.0 7.0 1.0 4.0 9.0 7.0 5.0 10.0 4.0 4.0 9.0 7.0 1.0 6.0 4.0 4.0 8.0 3.0 4.0 8.0 2.0 9.0 9.0 1.0 3.0 2.0 8.0 0.0 9.0 8.0 6.0 7.0 7.0 3.0 4.0 8.0 10.0 0.0 10.0 9.0 0.0 2.0 7.0 10.0 4.0 10.0 8.0 5.0 5.0 2.0 2.0 5.0 5.0 0.0 -424.0 10.0 7.0 4.0 4.0 8.0 
6.0 0.0 9.0 10.0 6.0 4.0 3.0 8.0 2.0 0.0 1.0 8.0 9.0 3.0 3.0 2.0 6.0 0.0 2.0 9.0 6.0 3.0 10.0 9.0 8.0 5.0 10.0 0.0 2.0 5.0 6.0 10.0 2.0 8.0 1.0 8.0 1.0 4.0 4.0 2.0 1.0 9.0 0.0 10.0 1.0 4.0 10.0 6.0 0.0 2.0 7.0 10.0 2.0 3.0 4.0 9.0 5.0 3.0 9.0 7.0 10.0 7.0 2.0 6.0 8.0 7.0 6.0 0.0 0.0 9.0 5.0 0.0 0.0 8.0 4.0 7.0 5.0 8.0 1.0 10.0 5.0 6.0 2.0 3.0 5.0 10.0 -459.0 8.0 1.0 10.0 9.0 
9.0 0.0 0.0 8.0 8.0 3.0 5.0 6.0 9.0 8.0 6.0 0.0 0.0 7.0 0.0 9.0 2.0 8.0 1.0 9.0 6.0 7.0 1.0 7.0 9.0 7.0 10.0 3.0 9.0 3.0 1.0 9.0 10.0 1.0 6.0 1.0 8.0 8.0 9.0 2.0 3.0 6.0 5.0 0.0 6.0 4.0 6.0 8.0 4.0 4.0 3.0 5.0 6.0 3.0 6.0 0.0 8.0 5.0 2.0 2.0 7.0 5.0 5.0 6.0 7.0 4.0 9.0 1.0 8.0 10.0 3.0 2.0 8.0 8.0 0.0 3.0 6.0 3.0 7.0 0.0 1.0 10.0 8.0 7.0 9.0 7.0 8.0 -464.0 1.0 3.0 7.0 
0.0 0.0 3.0 1.0 1.0 2.0 10.0 6.0 7.0 3.0 5.0 2.0 7.0 10.0 10.0 4.0 8.0 1.0 3.0 0.0 1.0 7.0 1.0 10.0 4.0 0.0 9.0 9.0 0.0 6.0 0.0 10.0 8.0 10.0 9.0 4.0 6.0 4.0 10.0 8.0 3.0 2.0 4.0 1.0 1.0 3.0 10.0 0.0 8.0 8.0 5.0 9.0 3.0 6.0 1.0 8.0 5.0 5.0 2.0 5.0 1.0 5.0 10.0 5.0 5.0 3.0 3.0 2.0 10.0 8.0 6.0 8.0 3.0 6.0 5.0 4.0 4.0 1.0 6.0 1.0 5.0 7.0 6.0 8.0 9.0 4.0 1.0 1.0 -438.0 4.0 9.0 
0.0 0.0 10.0 1.0 8.0 0.0 3.0 1.0 9.0 0.0 8.0 2.0 4.0 1.0 1.0 7.0 4.0 1.0 0.0 3.0 5.0 3.0 10.0 1.0 3.0 0.0 2.0 8.0 6.0 2.0 5.0 10.0 10.0 2.0 2.0 2.0 10.0 1.0 6.0 3.0 10.0 1.0 4.0 1.0 3.0 6.0 6.0 1.0 9.0 2.0 1.0 3.0 8.0 5.0 8.0 9.0 0.0 6.0 7.0 2.0 7.0 4.0 1.0 10.0 8.0 0.0 2.0 7.0 7.0 4.0 9.0 10.0 8.0 8.0 0.0 9.0 1.0 8.0 1.0 10.0 9.0 3.0 3.0 5.0 4.0 4.0 10.0 3.0 4.0 -409.0 4.0 
0.0 0.0 9.0 2.0 4.0 3.0 7.0 7.0 1.0 10.0 7.0 8.0 9.0 1.0 5.0 7.0 10.0 6.0 2.0 7.0 5.0 4.0 6.0 3.0 3.0 0.0 4.0 6.0 5.0 2.0 5.0 0.0 6.0 7.0 5.0 1.0 7.0 9.0 0.0 1.0 6.0 1.0 5.0 8.0 5.0 8.0 5.0 2.0 6.0 10.0 1.0 6.0 10.0 5.0 7.0 0.0 10.0 2.0 3.0 9.0 4.0 9.0 6.0 9.0 7.0 4.0 9.0 9.0 0.0 3.0 0.0 1.0 10.0 3.0 2.0 9.0 2.0 2.0 1.0 3.0 2.0 6.0 6.0 7.0 5.0 8.0 9.0 7.0 9.0 4.0 -449.0 

